(set-logic HORN)
(declare-fun assign_376_34_10_abs0123 (Int Int Int Int Int Int Int Int Int Int) Bool)
(declare-fun assert_367_33_10_abs0123 (Int Int Int Int Int Int Int Int Int Int) Bool)
(declare-fun assert_349_32_3_abs0123 (Int Int Int Int Int Int Int Int Int Int) Bool)
(declare-fun assert_331_31_10_abs0123 (Int Int Int Int Int Int Int Int Int Int) Bool)
(declare-fun assert_298_30_10_abs0123 (Int Int Int Int Int Int Int Int Int Int) Bool)
(declare-fun while_379_29_8_abs0123 (Int Int Int Int Int Int Int Int Int Int) Bool)
(declare-fun assign_257_28_1_abs0123 (Int Int Int Int Int Int Int Int Int Int) Bool)
(declare-fun assign_248_25_5_abs0123 (Int Int Int Int Int Int Int Int Int Int) Bool)
(declare-fun arrayassign_239_24_5_abs0123 (Int Int Int Int Int Int Int Int Int Int) Bool)
(declare-fun arrayassign_225_23_5_abs0123 (Int Int Int Int Int Int Int Int Int Int) Bool)
(declare-fun assert_211_22_12_abs0123 (Int Int Int Int Int Int Int Int Int Int) Bool)
(declare-fun assert_178_21_12_abs0123 (Int Int Int Int Int Int Int Int Int Int) Bool)
(declare-fun while_251_20_1_abs0123 (Int Int Int Int Int Int Int Int Int Int) Bool)
(declare-fun assign_137_19_1_abs0123 (Int Int Int Int Int Int Int Int Int Int) Bool)
(declare-fun assign_128_17_5_abs0123 (Int Int Int Int Int Int Int Int Int Int) Bool)
(declare-fun arrayassign_119_16_12_abs0123 (Int Int Int Int Int Int Int Int Int Int) Bool)
(declare-fun arrayassign_105_15_5_abs0123 (Int Int Int Int Int Int Int Int Int Int) Bool)
(declare-fun while_131_13_1_abs0123 (Int Int Int Int Int Int Int Int Int Int) Bool)
(declare-fun assign_83_12_8_abs0123 (Int Int Int Int Int Int Int Int Int Int) Bool)
(declare-fun assign_77_11_1_abs0123 (Int Int Int Int Int Int Int Int Int Int) Bool)
(declare-fun end_abs0123 (Int Int Int Int Int Int Int Int Int Int) Bool)
(declare-fun start_abs0123 (Int Int Int Int Int Int Int Int Int Int) Bool)
(assert (forall ((N Int) (i Int) (vabs_f_f Int) (vabs_s_f_f Int) (vabs_s_s_f_f Int) (vabs_s_s_s_f_f Int) (b_copy_select Int) (a_copy_select Int) (b_select Int) (a_select Int)) (start_abs0123 vabs_f_f b_copy_select vabs_s_f_f a_copy_select vabs_s_s_f_f b_select vabs_s_s_s_f_f a_select N i)))
(assert (forall ((i Int) (N Int) (vabs_0_f_f Int) (vabs_0_s_f_f Int) (vabs_0_s_s_f_f Int) (vabs_0_s_s_s_f_f Int) (a_select Int) (b_select Int) (a_copy_select Int) (b_copy_select Int)) (=> (start_abs0123 vabs_0_f_f b_copy_select vabs_0_s_f_f a_copy_select vabs_0_s_s_f_f b_select vabs_0_s_s_s_f_f a_select N i) (assign_77_11_1_abs0123 vabs_0_f_f b_copy_select vabs_0_s_f_f a_copy_select vabs_0_s_s_f_f b_select vabs_0_s_s_s_f_f a_select N i))))
(assert (forall ((rnd Int) (i Int) (N Int) (vabs_0_f_f Int) (vabs_0_s_f_f Int) (vabs_0_s_s_f_f Int) (vabs_0_s_s_s_f_f Int) (a_select Int) (b_select Int) (a_copy_select Int) (b_copy_select Int)) (=> (assign_77_11_1_abs0123 vabs_0_f_f b_copy_select vabs_0_s_f_f a_copy_select vabs_0_s_s_f_f b_select vabs_0_s_s_s_f_f a_select N i) (assign_83_12_8_abs0123 vabs_0_f_f b_copy_select vabs_0_s_f_f a_copy_select vabs_0_s_s_f_f b_select vabs_0_s_s_s_f_f a_select rnd i))))
(assert (forall ((i Int) (N Int) (vabs_0_f_f Int) (vabs_0_s_f_f Int) (vabs_0_s_s_f_f Int) (vabs_0_s_s_s_f_f Int) (a_select Int) (b_select Int) (a_copy_select Int) (b_copy_select Int)) (=> (assign_83_12_8_abs0123 vabs_0_f_f b_copy_select vabs_0_s_f_f a_copy_select vabs_0_s_s_f_f b_select vabs_0_s_s_s_f_f a_select N i) (while_131_13_1_abs0123 vabs_0_f_f b_copy_select vabs_0_s_f_f a_copy_select vabs_0_s_s_f_f b_select vabs_0_s_s_s_f_f a_select N 0))))
(assert (forall ((N Int) (i Int) (vabs_0_f_f Int) (vabs_0_s_f_f Int) (vabs_0_s_s_f_f Int) (vabs_0_s_s_s_f_f Int) (b_copy_select Int) (a_copy_select Int) (b_select Int) (a_select Int)) (=> (and (while_131_13_1_abs0123 vabs_0_f_f b_copy_select vabs_0_s_f_f a_copy_select vabs_0_s_s_f_f b_select vabs_0_s_s_s_f_f a_select N i) (< i N)) (arrayassign_105_15_5_abs0123 vabs_0_f_f b_copy_select vabs_0_s_f_f a_copy_select vabs_0_s_s_f_f b_select vabs_0_s_s_s_f_f a_select N i))))
(assert (forall ((N Int) (i Int) (vabs_0_f_f Int) (vabs_0_s_f_f Int) (vabs_0_s_s_f_f Int) (vabs_0_s_s_s_f_f Int) (b_copy_select Int) (a_copy_select Int) (b_select Int) (a_select Int)) (=> (and (while_131_13_1_abs0123 vabs_0_f_f b_copy_select vabs_0_s_f_f a_copy_select vabs_0_s_s_f_f b_select vabs_0_s_s_s_f_f a_select N i) (not (< i N))) (assign_137_19_1_abs0123 vabs_0_f_f b_copy_select vabs_0_s_f_f a_copy_select vabs_0_s_s_f_f b_select vabs_0_s_s_s_f_f a_select N i))))
(assert (forall ((i Int) (N Int) (vabs_0_f_f Int) (vabs_0_s_f_f Int) (vabs_0_s_s_f_f Int) (vabs_0_s_s_s_f_f Int) (a_select_0 Int) (a_select Int) (b_select Int) (a_copy_select Int) (b_copy_select Int)) (=> (and (=> (= i vabs_0_s_s_s_f_f) (= a_select a_select_0)) (arrayassign_105_15_5_abs0123 vabs_0_f_f b_copy_select vabs_0_s_f_f a_copy_select vabs_0_s_s_f_f b_select vabs_0_s_s_s_f_f a_select N i) (arrayassign_105_15_5_abs0123 vabs_0_f_f b_copy_select vabs_0_s_f_f a_copy_select vabs_0_s_s_f_f b_select i a_select_0 N i)) (arrayassign_119_16_12_abs0123 vabs_0_f_f b_copy_select vabs_0_s_f_f (ite (= i vabs_0_s_f_f) a_select_0 a_copy_select) vabs_0_s_s_f_f b_select vabs_0_s_s_s_f_f a_select N i))))
(assert (forall ((i Int) (N Int) (vabs_0_f_f Int) (vabs_0_s_f_f Int) (vabs_0_s_s_f_f Int) (vabs_0_s_s_s_f_f Int) (a_select Int) (b_select_0 Int) (b_select Int) (a_copy_select Int) (b_copy_select Int)) (=> (and (=> (= i vabs_0_s_s_f_f) (= b_select b_select_0)) (arrayassign_119_16_12_abs0123 vabs_0_f_f b_copy_select vabs_0_s_f_f a_copy_select vabs_0_s_s_f_f b_select vabs_0_s_s_s_f_f a_select N i) (arrayassign_119_16_12_abs0123 vabs_0_f_f b_copy_select vabs_0_s_f_f a_copy_select i b_select_0 vabs_0_s_s_s_f_f a_select N i)) (assign_128_17_5_abs0123 vabs_0_f_f (ite (= i vabs_0_f_f) b_select_0 b_copy_select) vabs_0_s_f_f a_copy_select vabs_0_s_s_f_f b_select vabs_0_s_s_s_f_f a_select N i))))
(assert (forall ((i Int) (N Int) (vabs_0_f_f Int) (vabs_0_s_f_f Int) (vabs_0_s_s_f_f Int) (vabs_0_s_s_s_f_f Int) (a_select Int) (b_select Int) (a_copy_select Int) (b_copy_select Int)) (=> (assign_128_17_5_abs0123 vabs_0_f_f b_copy_select vabs_0_s_f_f a_copy_select vabs_0_s_s_f_f b_select vabs_0_s_s_s_f_f a_select N i) (while_131_13_1_abs0123 vabs_0_f_f b_copy_select vabs_0_s_f_f a_copy_select vabs_0_s_s_f_f b_select vabs_0_s_s_s_f_f a_select N (+ i 1)))))
(assert (forall ((i Int) (N Int) (vabs_0_f_f Int) (vabs_0_s_f_f Int) (vabs_0_s_s_f_f Int) (vabs_0_s_s_s_f_f Int) (a_select Int) (b_select Int) (a_copy_select Int) (b_copy_select Int)) (=> (assign_137_19_1_abs0123 vabs_0_f_f b_copy_select vabs_0_s_f_f a_copy_select vabs_0_s_s_f_f b_select vabs_0_s_s_s_f_f a_select N i) (while_251_20_1_abs0123 vabs_0_f_f b_copy_select vabs_0_s_f_f a_copy_select vabs_0_s_s_f_f b_select vabs_0_s_s_s_f_f a_select N 0))))
(assert (forall ((N Int) (i Int) (vabs_0_f_f Int) (vabs_0_s_f_f Int) (vabs_0_s_s_f_f Int) (vabs_0_s_s_s_f_f Int) (b_copy_select Int) (a_copy_select Int) (b_select Int) (a_select Int)) (=> (and (while_251_20_1_abs0123 vabs_0_f_f b_copy_select vabs_0_s_f_f a_copy_select vabs_0_s_s_f_f b_select vabs_0_s_s_s_f_f a_select N i) (< i N)) (assert_178_21_12_abs0123 vabs_0_f_f b_copy_select vabs_0_s_f_f a_copy_select vabs_0_s_s_f_f b_select vabs_0_s_s_s_f_f a_select N i))))
(assert (forall ((N Int) (i Int) (vabs_0_f_f Int) (vabs_0_s_f_f Int) (vabs_0_s_s_f_f Int) (vabs_0_s_s_s_f_f Int) (b_copy_select Int) (a_copy_select Int) (b_select Int) (a_select Int)) (=> (and (while_251_20_1_abs0123 vabs_0_f_f b_copy_select vabs_0_s_f_f a_copy_select vabs_0_s_s_f_f b_select vabs_0_s_s_s_f_f a_select N i) (not (< i N))) (assign_257_28_1_abs0123 vabs_0_f_f b_copy_select vabs_0_s_f_f a_copy_select vabs_0_s_s_f_f b_select vabs_0_s_s_s_f_f a_select N i))))
(assert (forall ((k Int) (i Int) (N Int) (a_select Int) (b_select Int) (a_copy_select Int) (b_copy_select Int)) (=> (and (assert_178_21_12_abs0123 0 b_copy_select k a_copy_select k b_select 0 a_select N i) (<= 0 k) (< k i)) (= a_copy_select b_select))))
(assert (forall ((i Int) (N Int) (vabs_0_f_f Int) (vabs_0_s_f_f Int) (vabs_0_s_s_f_f Int) (vabs_0_s_s_s_f_f Int) (a_select Int) (b_select Int) (a_copy_select Int) (b_copy_select Int)) (=> (assert_178_21_12_abs0123 vabs_0_f_f b_copy_select vabs_0_s_f_f a_copy_select vabs_0_s_s_f_f b_select vabs_0_s_s_s_f_f a_select N i) (assert_211_22_12_abs0123 vabs_0_f_f b_copy_select vabs_0_s_f_f a_copy_select vabs_0_s_s_f_f b_select vabs_0_s_s_s_f_f a_select N i))))
(assert (forall ((k Int) (i Int) (N Int) (a_select Int) (b_select Int) (a_copy_select Int) (b_copy_select Int)) (=> (and (assert_211_22_12_abs0123 k b_copy_select 0 a_copy_select 0 b_select k a_select N i) (<= 0 k) (< k i)) (= b_copy_select a_select))))
(assert (forall ((i Int) (N Int) (vabs_0_f_f Int) (vabs_0_s_f_f Int) (vabs_0_s_s_f_f Int) (vabs_0_s_s_s_f_f Int) (a_select Int) (b_select Int) (a_copy_select Int) (b_copy_select Int)) (=> (assert_211_22_12_abs0123 vabs_0_f_f b_copy_select vabs_0_s_f_f a_copy_select vabs_0_s_s_f_f b_select vabs_0_s_s_s_f_f a_select N i) (arrayassign_225_23_5_abs0123 vabs_0_f_f b_copy_select vabs_0_s_f_f a_copy_select vabs_0_s_s_f_f b_select vabs_0_s_s_s_f_f a_select N i))))
(assert (forall ((i Int) (N Int) (vabs_0_f_f Int) (vabs_0_s_f_f Int) (vabs_0_s_s_f_f Int) (vabs_0_s_s_s_f_f Int) (a_select Int) (b_select_0 Int) (b_select Int) (a_copy_select Int) (b_copy_select Int)) (=> (and (=> (= i vabs_0_s_s_f_f) (= b_select b_select_0)) (arrayassign_225_23_5_abs0123 vabs_0_f_f b_copy_select vabs_0_s_f_f a_copy_select vabs_0_s_s_f_f b_select vabs_0_s_s_s_f_f a_select N i) (arrayassign_225_23_5_abs0123 vabs_0_f_f b_copy_select vabs_0_s_f_f a_copy_select i b_select_0 vabs_0_s_s_s_f_f a_select N i)) (arrayassign_239_24_5_abs0123 vabs_0_f_f b_copy_select vabs_0_s_f_f (ite (= i vabs_0_s_f_f) b_select_0 a_copy_select) vabs_0_s_s_f_f b_select vabs_0_s_s_s_f_f a_select N i))))
(assert (forall ((i Int) (N Int) (vabs_0_f_f Int) (vabs_0_s_f_f Int) (vabs_0_s_s_f_f Int) (vabs_0_s_s_s_f_f Int) (a_select_0 Int) (a_select Int) (b_select Int) (a_copy_select Int) (b_copy_select Int)) (=> (and (=> (= i vabs_0_s_s_s_f_f) (= a_select a_select_0)) (arrayassign_239_24_5_abs0123 vabs_0_f_f b_copy_select vabs_0_s_f_f a_copy_select vabs_0_s_s_f_f b_select vabs_0_s_s_s_f_f a_select N i) (arrayassign_239_24_5_abs0123 vabs_0_f_f b_copy_select vabs_0_s_f_f a_copy_select vabs_0_s_s_f_f b_select i a_select_0 N i)) (assign_248_25_5_abs0123 vabs_0_f_f (ite (= i vabs_0_f_f) a_select_0 b_copy_select) vabs_0_s_f_f a_copy_select vabs_0_s_s_f_f b_select vabs_0_s_s_s_f_f a_select N i))))
(assert (forall ((i Int) (N Int) (vabs_0_f_f Int) (vabs_0_s_f_f Int) (vabs_0_s_s_f_f Int) (vabs_0_s_s_s_f_f Int) (a_select Int) (b_select Int) (a_copy_select Int) (b_copy_select Int)) (=> (assign_248_25_5_abs0123 vabs_0_f_f b_copy_select vabs_0_s_f_f a_copy_select vabs_0_s_s_f_f b_select vabs_0_s_s_s_f_f a_select N i) (while_251_20_1_abs0123 vabs_0_f_f b_copy_select vabs_0_s_f_f a_copy_select vabs_0_s_s_f_f b_select vabs_0_s_s_s_f_f a_select N (+ i 1)))))
(assert (forall ((i Int) (N Int) (vabs_0_f_f Int) (vabs_0_s_f_f Int) (vabs_0_s_s_f_f Int) (vabs_0_s_s_s_f_f Int) (a_select Int) (b_select Int) (a_copy_select Int) (b_copy_select Int)) (=> (assign_257_28_1_abs0123 vabs_0_f_f b_copy_select vabs_0_s_f_f a_copy_select vabs_0_s_s_f_f b_select vabs_0_s_s_s_f_f a_select N i) (while_379_29_8_abs0123 vabs_0_f_f b_copy_select vabs_0_s_f_f a_copy_select vabs_0_s_s_f_f b_select vabs_0_s_s_s_f_f a_select N 0))))
(assert (forall ((N Int) (i Int) (vabs_0_f_f Int) (vabs_0_s_f_f Int) (vabs_0_s_s_f_f Int) (vabs_0_s_s_s_f_f Int) (b_copy_select Int) (a_copy_select Int) (b_select Int) (a_select Int)) (=> (and (while_379_29_8_abs0123 vabs_0_f_f b_copy_select vabs_0_s_f_f a_copy_select vabs_0_s_s_f_f b_select vabs_0_s_s_s_f_f a_select N i) (< i N)) (assert_298_30_10_abs0123 vabs_0_f_f b_copy_select vabs_0_s_f_f a_copy_select vabs_0_s_s_f_f b_select vabs_0_s_s_s_f_f a_select N i))))
(assert (forall ((N Int) (i Int) (vabs_0_f_f Int) (vabs_0_s_f_f Int) (vabs_0_s_s_f_f Int) (vabs_0_s_s_s_f_f Int) (b_copy_select Int) (a_copy_select Int) (b_select Int) (a_select Int)) (=> (and (while_379_29_8_abs0123 vabs_0_f_f b_copy_select vabs_0_s_f_f a_copy_select vabs_0_s_s_f_f b_select vabs_0_s_s_s_f_f a_select N i) (not (< i N))) (end_abs0123 vabs_0_f_f b_copy_select vabs_0_s_f_f a_copy_select vabs_0_s_s_f_f b_select vabs_0_s_s_s_f_f a_select N i))))
(assert (forall ((k Int) (i Int) (N Int) (a_select Int) (b_select Int) (a_copy_select Int) (b_copy_select Int)) (=> (and (assert_298_30_10_abs0123 0 b_copy_select k a_copy_select k b_select 0 a_select N i) (<= 0 k) (< k N)) (= a_copy_select b_select))))
(assert (forall ((i Int) (N Int) (vabs_0_f_f Int) (vabs_0_s_f_f Int) (vabs_0_s_s_f_f Int) (vabs_0_s_s_s_f_f Int) (a_select Int) (b_select Int) (a_copy_select Int) (b_copy_select Int)) (=> (assert_298_30_10_abs0123 vabs_0_f_f b_copy_select vabs_0_s_f_f a_copy_select vabs_0_s_s_f_f b_select vabs_0_s_s_s_f_f a_select N i) (assert_331_31_10_abs0123 vabs_0_f_f b_copy_select vabs_0_s_f_f a_copy_select vabs_0_s_s_f_f b_select vabs_0_s_s_s_f_f a_select N i))))
(assert (forall ((k Int) (i Int) (N Int) (a_select Int) (b_select Int) (a_copy_select Int) (b_copy_select Int)) (=> (and (assert_331_31_10_abs0123 k b_copy_select 0 a_copy_select 0 b_select k a_select N i) (<= 0 k) (< k N)) (= b_copy_select a_select))))
(assert (forall ((i Int) (N Int) (vabs_0_f_f Int) (vabs_0_s_f_f Int) (vabs_0_s_s_f_f Int) (vabs_0_s_s_s_f_f Int) (a_select Int) (b_select Int) (a_copy_select Int) (b_copy_select Int)) (=> (assert_331_31_10_abs0123 vabs_0_f_f b_copy_select vabs_0_s_f_f a_copy_select vabs_0_s_s_f_f b_select vabs_0_s_s_s_f_f a_select N i) (assert_349_32_3_abs0123 vabs_0_f_f b_copy_select vabs_0_s_f_f a_copy_select vabs_0_s_s_f_f b_select vabs_0_s_s_s_f_f a_select N i))))
(assert (forall ((i Int) (N Int) (a_select Int) (b_select Int) (a_copy_select Int) (b_copy_select Int)) (=> (assert_349_32_3_abs0123 i b_copy_select 0 a_copy_select 0 b_select i a_select N i) (= a_select b_copy_select))))
(assert (forall ((i Int) (N Int) (vabs_0_f_f Int) (vabs_0_s_f_f Int) (vabs_0_s_s_f_f Int) (vabs_0_s_s_s_f_f Int) (a_select Int) (b_select Int) (a_copy_select Int) (b_copy_select Int)) (=> (assert_349_32_3_abs0123 vabs_0_f_f b_copy_select vabs_0_s_f_f a_copy_select vabs_0_s_s_f_f b_select vabs_0_s_s_s_f_f a_select N i) (assert_367_33_10_abs0123 vabs_0_f_f b_copy_select vabs_0_s_f_f a_copy_select vabs_0_s_s_f_f b_select vabs_0_s_s_s_f_f a_select N i))))
(assert (forall ((i Int) (N Int) (a_select Int) (b_select Int) (a_copy_select Int) (b_copy_select Int)) (=> (assert_367_33_10_abs0123 0 b_copy_select i a_copy_select i b_select 0 a_select N i) (= b_select a_copy_select))))
(assert (forall ((i Int) (N Int) (vabs_0_f_f Int) (vabs_0_s_f_f Int) (vabs_0_s_s_f_f Int) (vabs_0_s_s_s_f_f Int) (a_select Int) (b_select Int) (a_copy_select Int) (b_copy_select Int)) (=> (assert_367_33_10_abs0123 vabs_0_f_f b_copy_select vabs_0_s_f_f a_copy_select vabs_0_s_s_f_f b_select vabs_0_s_s_s_f_f a_select N i) (assign_376_34_10_abs0123 vabs_0_f_f b_copy_select vabs_0_s_f_f a_copy_select vabs_0_s_s_f_f b_select vabs_0_s_s_s_f_f a_select N i))))
(assert (forall ((i Int) (N Int) (vabs_0_f_f Int) (vabs_0_s_f_f Int) (vabs_0_s_s_f_f Int) (vabs_0_s_s_s_f_f Int) (a_select Int) (b_select Int) (a_copy_select Int) (b_copy_select Int)) (=> (assign_376_34_10_abs0123 vabs_0_f_f b_copy_select vabs_0_s_f_f a_copy_select vabs_0_s_s_f_f b_select vabs_0_s_s_s_f_f a_select N i) (while_379_29_8_abs0123 vabs_0_f_f b_copy_select vabs_0_s_f_f a_copy_select vabs_0_s_s_f_f b_select vabs_0_s_s_s_f_f a_select N (+ i 1)))))
(check-sat)